Route #1: 1 24 7 44 15 39 27 14 46 1
Route #2: 1 10 29 20 12 9 34 43 25 17 4 6 1
Route #3: 1 18 22 42 21 32 28 2 41 35 37 1
Route #4: 1 13 36 19 26 45 1
Route #5: 1 40 23 8 11 33 1
Route #6: 1 38 3 31 5 1
Route #7: 1 16 30 1
cost 1106
